2505.94
0 117 63 116 167 29 24 123 93 77 81 47 126 102 157 1 34 141 36 51 159 74 11 133 39 105 88 13 112 154 32 138 142 38 128 110 90 131 166 49 76 60 146 68 22 75 169 168 165 6 173 66 172 69 155 31 26 103 82 121 27 139 64 40 153 163 111 100 91 48 124 162 72 55 71 78 35 3 28 61 65 144 2 129 10 108 43 114 136 92 30 45 109 79 33 118 19 16 174 164 12 56 67 54 137 37 120 18 41 44 145 25 4 158 148 9 135 7 160 122 23 98 20 86 89 119 130 15 140 106 113 101 80 85 42 57 127 107 104 53 14 50 161 8 70 83 46 115 58 152 94 150 134 97 132 95 17 84 52 62 96 87 5 171 125 21 170 151 147 59 99 143 73 156 149
